benchmarks_CP/INST_36x36/35/inst36x36_35_81.dzn
S=6;
start=[|
-1,	-1,	-1,	-1,	-1,	-1,	12,	-1,	-1,	35,	31,	-1,	33,	-1,	-1,	28,	1,	-1,	-1,	-1,	34,	-1,	-1,	-1,	-1,	-1,	-1,	19,	-1,	5,	8,	-1,	13,	27,	21,	-1|
1,	-1,	-1,	-1,	4,	-1,	-1,	-1,	-1,	19,	10,	-1,	29,	-1,	-1,	-1,	6,	35,	-1,	15,	-1,	-1,	16,	-1,	26,	-1,	-1,	21,	-1,	27,	-1,	-1,	33,	-1,	3,	-1|
-1,	19,	-1,	-1,	-1,	-1,	1,	-1,	-1,	30,	-1,	-1,	-1,	-1,	-1,	-1,	-1,	-1,	33,	14,	12,	-1,	-1,	27,	29,	-1,	-1,	-1,	31,	8,	-1,	-1,	-1,	-1,	9,	-1|
2,	-1,	-1,	-1,	28,	-1,	6,	4,	8,	-1,	11,	-1,	-1,	-1,	-1,	-1,	-1,	3,	-1,	13,	20,	-1,	-1,	-1,	23,	33,	-1,	-1,	-1,	-1,	-1,	-1,	5,	7,	18,	-1|
-1,	24,	-1,	6,	12,	-1,	-1,	23,	-1,	22,	-1,	-1,	-1,	17,	16,	34,	-1,	-1,	-1,	-1,	-1,	-1,	-1,	-1,	1,	13,	3,	-1,	32,	-1,	19,	20,	31,	-1,	-1,	-1|
-1,	-1,	-1,	-1,	-1,	22,	29,	-1,	-1,	-1,	34,	-1,	25,	-1,	19,	18,	26,	-1,	-1,	2,	-1,	4,	3,	-1,	-1,	-1,	-1,	9,	28,	24,	12,	-1,	-1,	-1,	-1,	-1|
-1,	-1,	-1,	-1,	-1,	-1,	27,	25,	30,	-1,	18,	-1,	-1,	-1,	31,	-1,	4,	-1,	-1,	-1,	-1,	-1,	-1,	3,	-1,	-1,	-1,	-1,	-1,	-1,	-1,	9,	6,	-1,	-1,	-1|
-1,	32,	-1,	-1,	-1,	-1,	-1,	-1,	-1,	-1,	-1,	-1,	-1,	6,	-1,	-1,	22,	-1,	-1,	-1,	10,	-1,	-1,	-1,	-1,	21,	18,	31,	-1,	36,	-1,	-1,	16,	28,	-1,	-1|
28,	-1,	-1,	-1,	-1,	-1,	-1,	20,	-1,	26,	-1,	10,	-1,	-1,	-1,	-1,	-1,	-1,	-1,	-1,	36,	-1,	-1,	-1,	13,	-1,	16,	12,	1,	4,	-1,	-1,	7,	-1,	11,	-1|
-1,	22,	-1,	-1,	-1,	-1,	14,	-1,	9,	6,	-1,	-1,	10,	-1,	-1,	-1,	34,	-1,	-1,	-1,	-1,	11,	-1,	29,	28,	-1,	-1,	-1,	-1,	32,	-1,	-1,	-1,	-1,	-1,	-1|
15,	26,	5,	-1,	27,	-1,	-1,	33,	11,	-1,	24,	-1,	-1,	18,	28,	-1,	-1,	2,	-1,	-1,	-1,	-1,	4,	-1,	3,	-1,	-1,	-1,	-1,	-1,	-1,	17,	-1,	-1,	-1,	-1|
-1,	-1,	-1,	-1,	30,	-1,	16,	-1,	-1,	-1,	1,	-1,	-1,	-1,	27,	35,	9,	-1,	18,	20,	-1,	32,	15,	-1,	2,	7,	-1,	29,	-1,	6,	-1,	22,	-1,	14,	12,	19|
-1,	-1,	34,	28,	1,	-1,	-1,	6,	-1,	25,	35,	-1,	-1,	-1,	-1,	24,	-1,	-1,	-1,	30,	-1,	-1,	-1,	10,	-1,	-1,	-1,	-1,	8,	20,	5,	-1,	-1,	17,	-1,	22|
23,	-1,	18,	25,	-1,	3,	-1,	-1,	36,	31,	-1,	21,	-1,	-1,	-1,	-1,	7,	-1,	-1,	-1,	-1,	-1,	-1,	16,	15,	6,	27,	-1,	22,	-1,	9,	-1,	-1,	30,	-1,	-1|
-1,	30,	-1,	19,	10,	-1,	32,	22,	16,	-1,	-1,	-1,	2,	-1,	-1,	-1,	-1,	25,	13,	-1,	-1,	-1,	-1,	7,	-1,	-1,	-1,	-1,	-1,	34,	-1,	6,	-1,	4,	-1,	-1|
-1,	-1,	-1,	9,	-1,	-1,	19,	-1,	2,	-1,	-1,	-1,	35,	-1,	5,	-1,	17,	-1,	26,	36,	-1,	22,	11,	-1,	-1,	-1,	23,	-1,	-1,	-1,	24,	-1,	-1,	-1,	-1,	-1|
29,	-1,	20,	-1,	21,	-1,	-1,	-1,	-1,	-1,	-1,	-1,	-1,	-1,	-1,	30,	-1,	22,	-1,	31,	-1,	-1,	34,	-1,	-1,	-1,	17,	18,	11,	26,	-1,	-1,	36,	-1,	32,	-1|
-1,	-1,	31,	-1,	-1,	24,	-1,	-1,	-1,	23,	-1,	-1,	21,	10,	15,	-1,	-1,	-1,	17,	-1,	29,	-1,	-1,	-1,	-1,	-1,	9,	-1,	-1,	-1,	-1,	-1,	26,	-1,	-1,	-1|
-1,	-1,	28,	-1,	24,	-1,	-1,	-1,	29,	-1,	7,	-1,	-1,	33,	-1,	-1,	-1,	-1,	-1,	-1,	13,	-1,	-1,	-1,	-1,	36,	-1,	17,	23,	30,	-1,	-1,	-1,	31,	-1,	-1|
18,	9,	-1,	5,	-1,	15,	-1,	14,	34,	-1,	-1,	-1,	7,	-1,	3,	-1,	12,	-1,	6,	21,	-1,	-1,	-1,	4,	-1,	32,	24,	-1,	-1,	19,	-1,	11,	-1,	22,	23,	36|
-1,	12,	1,	-1,	-1,	30,	20,	-1,	-1,	-1,	-1,	-1,	-1,	-1,	34,	29,	-1,	-1,	-1,	-1,	-1,	18,	28,	-1,	31,	-1,	-1,	-1,	-1,	2,	-1,	-1,	14,	-1,	-1,	-1|
22,	-1,	-1,	-1,	19,	-1,	31,	-1,	-1,	-1,	21,	-1,	-1,	-1,	35,	-1,	-1,	-1,	12,	-1,	-1,	-1,	-1,	14,	-1,	-1,	-1,	-1,	-1,	-1,	-1,	24,	27,	-1,	33,	6|
-1,	-1,	11,	-1,	25,	14,	33,	-1,	-1,	-1,	-1,	-1,	22,	-1,	-1,	10,	-1,	-1,	-1,	-1,	-1,	16,	-1,	31,	-1,	28,	-1,	34,	-1,	7,	20,	18,	-1,	29,	15,	-1|
4,	-1,	-1,	36,	26,	-1,	18,	35,	24,	15,	6,	-1,	-1,	14,	-1,	-1,	-1,	-1,	-1,	-1,	33,	-1,	-1,	5,	-1,	-1,	-1,	22,	3,	1,	-1,	12,	-1,	-1,	7,	-1|
16,	-1,	-1,	-1,	-1,	-1,	-1,	31,	-1,	20,	2,	-1,	-1,	19,	24,	11,	-1,	-1,	-1,	-1,	-1,	-1,	-1,	-1,	10,	5,	36,	-1,	-1,	3,	-1,	29,	9,	-1,	-1,	33|
-1,	10,	32,	26,	-1,	-1,	24,	36,	-1,	14,	-1,	6,	-1,	5,	-1,	-1,	-1,	1,	-1,	-1,	-1,	23,	8,	-1,	35,	-1,	-1,	-1,	-1,	-1,	-1,	34,	-1,	20,	-1,	31|
-1,	23,	-1,	4,	-1,	-1,	28,	-1,	17,	10,	-1,	-1,	-1,	-1,	-1,	-1,	-1,	-1,	-1,	-1,	-1,	-1,	-1,	-1,	-1,	-1,	32,	-1,	34,	-1,	-1,	-1,	-1,	-1,	-1,	26|
-1,	-1,	30,	29,	-1,	-1,	-1,	-1,	12,	18,	5,	-1,	16,	22,	-1,	-1,	-1,	-1,	-1,	-1,	26,	36,	-1,	-1,	-1,	-1,	1,	-1,	27,	-1,	6,	32,	-1,	-1,	-1,	-1|
-1,	-1,	-1,	-1,	11,	-1,	-1,	32,	-1,	-1,	13,	-1,	26,	-1,	10,	-1,	35,	-1,	5,	-1,	-1,	7,	31,	33,	-1,	-1,	-1,	-1,	-1,	-1,	-1,	2,	-1,	8,	-1,	1|
5,	-1,	-1,	-1,	-1,	13,	23,	1,	33,	16,	-1,	-1,	-1,	-1,	-1,	-1,	-1,	-1,	24,	-1,	14,	-1,	-1,	-1,	-1,	-1,	-1,	7,	-1,	-1,	-1,	-1,	10,	-1,	-1,	-1|
-1,	7,	2,	1,	-1,	36,	-1,	5,	-1,	-1,	29,	-1,	4,	12,	-1,	15,	-1,	30,	21,	-1,	-1,	-1,	-1,	11,	33,	-1,	-1,	-1,	-1,	-1,	-1,	-1,	-1,	-1,	-1,	-1|
-1,	-1,	21,	-1,	-1,	-1,	36,	26,	-1,	-1,	12,	-1,	-1,	-1,	-1,	-1,	-1,	-1,	-1,	-1,	8,	-1,	-1,	-1,	-1,	-1,	20,	32,	29,	-1,	-1,	-1,	-1,	-1,	-1,	3|
-1,	-1,	-1,	32,	-1,	-1,	30,	-1,	-1,	-1,	-1,	-1,	-1,	35,	-1,	25,	33,	18,	-1,	-1,	-1,	-1,	-1,	-1,	-1,	-1,	19,	-1,	16,	-1,	-1,	23,	2,	-1,	-1,	-1|
12,	-1,	-1,	-1,	9,	16,	35,	-1,	-1,	-1,	-1,	-1,	-1,	-1,	-1,	-1,	-1,	21,	-1,	-1,	-1,	31,	7,	-1,	4,	1,	13,	-1,	-1,	-1,	28,	15,	-1,	-1,	-1,	20|
-1,	-1,	3,	31,	-1,	27,	-1,	-1,	-1,	-1,	-1,	19,	-1,	26,	-1,	-1,	-1,	-1,	-1,	-1,	32,	-1,	-1,	-1,	-1,	-1,	15,	-1,	21,	-1,	-1,	-1,	17,	-1,	-1,	-1|
-1,	15,	22,	14,	23,	-1,	-1,	-1,	-1,	13,	16,	20,	-1,	-1,	11,	-1,	31,	-1,	-1,	-1,	-1,	-1,	-1,	17,	-1,	-1,	-1,	-1,	30,	-1,	33,	4,	-1,	-1,	-1,	-1|];
